paratsp/TSP/hoto30.tsp
NAME : hoto30.tsp
COMMENT : GA auf Parsytec-GC (Totzke)
TYPE : TSP
DIMENSION : 30
EDGE_WEIGHT_TYPE : HOTO
NODE_COORD_SECTION
:Deutschland
1	14449	13822	Berlin
2	11509	12808	Dortmund
3	12165	11676	Frankfurt
4	12703	14465	Hamburg
5	13808	10135	Muenchen
6	13653	13346	Schoenebeck
:Grossbritannien
7	5989	16739	Glasgow
8	7576	12924	London
:Frankreich
9	10361	6040	Marseille
10	8761	10662	Paris
:Norwegen
11	12725	19798	Oslo
:Schweden
12	15791	19726	Stockholm
:Finnland
13	18423	21079	Helsinki
:Daenemark
14	13726	16400	Kopenhagen
:Niederlande
15	10206	13533	Amsterdam
:Belgien
16	9884	12263	Bruessel
:Polen
17	18308	14209	Warschau
:Tschechei/Slowakei
18	15202	11889	Prag
:Ungarn
19	17995	10136	Budapest
:Rumaenien
20	22589	8503	Bukarest
:Bulgarien
21	21273	6624	Sofia
:Griechenland
22	22307	2801	Athen
:Tuerkei
23	25051	6187	Istanbul
:Oesterreich
24	16454	10470	Wien
:Italien
25	12590	7868	Mailand
26	14734	5032	Rom
27	14406	7952	Venedig
:Spanien
28	8378	4543	Barcelona
29	4649	4031	Madrid
:Portugal
30	948	3099	Lissabon
EOF
