paratsp/TSP/hoto30.opt
NAME : Created by ParaTSP 1.0
COMMENT : Optimum tour for '../TSP/hoto30.tsp' (Length: 13114)
TYPE : TOUR
DIMENSION : 30
TOUR_SECTION
10
8
7
15
16
2
3
5
18
1
6
4
14
11
12
13
17
24
19
21
20
23
22
26
27
25
9
28
29
30
-1
EOF
